nK = 939;
nT = 6;
nI = 14;
L = 29;
TT = 219;
np = 1;
nc = 3;
b = [36, 40, 45, 34, 49, 24, 55, 45, 35, 68, 43, 53, 41, 57];
d = [88, 68, 119, 86, 76, 92, 120, 132, 68, 144, 144, 93, 113, 124];
m = [2.5, 1.2, 2.1, 1, 1.3, 1.1, 2, 1.1, 1.3, 1, 1.8, 1.9, 1.1, 1.6];
pt = [0.33, 0.26, 0.22, 0.24, 0.25, 0.27];
st = [19.14, 13, 12.32, 12.72, 13, 15.66];
arc = {<1, 0, 1, 1, 0, 0, 0, [1, 1, 1, 1, 1, 1]>, <2, 1, 2, 1, 0, 0, 0, [1, 1, 1, 1, 1, 1]>, <3, 2, 3, 1, 0, 0, 0, [1, 1, 1, 1, 1, 1]>, <4, 3, 4, 1, 0, 0, 0, [1, 1, 1, 1, 1, 1]>, <5, 4, 5, 1, 0, 0, 0, [1, 1, 1, 1, 1, 1]>, <6, 5, 6, 1, 0, 0, 0, [1, 1, 1, 1, 1, 1]>, <7, 6, 7, 1, 0, 0, 0, [1, 1, 1, 1, 1, 1]>, <8, 7, 8, 1, 0, 0, 0, [1, 1, 1, 1, 1, 1]>, <9, 8, 9, 1, 0, 0, 0, [1, 1, 1, 1, 1, 1]>, <10, 9, 10, 1, 0, 0, 0, [1, 1, 1, 1, 1, 1]>, <11, 10, 11, 1, 0, 0, 0, [1, 1, 1, 1, 1, 1]>, <12, 11, 12, 1, 0, 0, 0, [1, 1, 1, 1, 1, 1]>, <13, 12, 13, 1, 0, 0, 0, [1, 1, 1, 1, 1, 1]>, <14, 13, 14, 1, 0, 0, 0, [1, 1, 1, 1, 1, 1]>, <15, 14, 15, 1, 0, 0, 0, [1, 1, 1, 1, 1, 1]>, <16, 15, 16, 1, 0, 0, 0, [1, 1, 1, 1, 1, 1]>, <17, 16, 17, 1, 0, 0, 0, [1, 1, 1, 1, 1, 1]>, <18, 17, 18, 1, 0, 0, 0, [1, 1, 1, 1, 1, 1]>, <19, 18, 19, 1, 0, 0, 0, [1, 1, 1, 1, 1, 1]>, <20, 19, 20, 1, 0, 0, 0, [1, 1, 1, 1, 1, 1]>, <21, 20, 21, 1, 0, 0, 0, [1, 1, 1, 1, 1, 1]>, <22, 21, 22, 1, 0, 0, 0, [1, 1, 1, 1, 1, 1]>, <23, 22, 23, 1, 0, 0, 0, [1, 1, 1, 1, 1, 1]>, <24, 23, 24, 1, 0, 0, 0, [1, 1, 1, 1, 1, 1]>, <25, 24, 25, 1, 0, 0, 0, [1, 1, 1, 1, 1, 1]>, <26, 25, 26, 1, 0, 0, 0, [1, 1, 1, 1, 1, 1]>, <27, 26, 27, 1, 0, 0, 0, [1, 1, 1, 1, 1, 1]>, <28, 27, 28, 1, 0, 0, 0, [1, 1, 1, 1, 1, 1]>, <29, 28, 29, 1, 0, 0, 0, [1, 1, 1, 1, 1, 1]>, <30, 3, 12, 9, 1, 0, 1, [0, 0, 1, 1, 1, 1]>, <31, 4, 13, 9, 1, 0, 1, [0, 0, 1, 1, 1, 1]>, <32, 5, 14, 9, 1, 0, 1, [0, 0, 1, 1, 1, 1]>, <33, 11, 20, 9, 1, 0, 1, [0, 0, 1, 1, 1, 1]>, <34, 12, 21, 9, 1, 0, 1, [0, 0, 1, 1, 1, 1]>, <35, 15, 24, 9, 1, 0, 1, [0, 0, 1, 1, 1, 1]>, <36, 16, 25, 9, 1, 0, 1, [0, 0, 1, 1, 1, 1]>, <37, 17, 26, 9, 1, 0, 1, [0, 0, 1, 1, 1, 1]>, <38, 18, 27, 9, 1, 0, 1, [0, 0, 1, 1, 1, 1]>, <39, 19, 28, 9, 1, 0, 1, [0, 0, 1, 1, 1, 1]>, <40, 20, 29, 9, 1, 0, 1, [0, 0, 1, 1, 1, 1]>, <41, 4, 12, 8, 2, 0, 1, [0, 0, 1, 1, 1, 1]>, <42, 5, 13, 8, 2, 0, 1, [0, 0, 1, 1, 1, 1]>, <43, 11, 19, 8, 2, 0, 1, [0, 0, 1, 1, 1, 1]>, <44, 12, 20, 8, 2, 0, 1, [0, 0, 1, 1, 1, 1]>, <45, 16, 24, 8, 2, 0, 1, [0, 0, 1, 1, 1, 1]>, <46, 17, 25, 8, 2, 0, 1, [0, 0, 1, 1, 1, 1]>, <47, 18, 26, 8, 2, 0, 1, [0, 0, 1, 1, 1, 1]>, <48, 19, 27, 8, 2, 0, 1, [0, 0, 1, 1, 1, 1]>, <49, 20, 28, 8, 2, 0, 1, [0, 0, 1, 1, 1, 1]>, <50, 1, 12, 11, 3, 0, 0, [1, 1, 1, 0, 0, 1]>, <51, 2, 13, 11, 3, 0, 0, [1, 1, 1, 0, 0, 1]>, <52, 3, 14, 11, 3, 0, 0, [1, 1, 1, 0, 0, 1]>, <53, 4, 15, 11, 3, 0, 0, [1, 1, 1, 0, 0, 1]>, <54, 5, 16, 11, 3, 0, 0, [1, 1, 1, 0, 0, 1]>, <55, 9, 20, 11, 3, 0, 0, [1, 1, 1, 0, 0, 1]>, <56, 10, 21, 11, 3, 0, 0, [1, 1, 1, 0, 0, 1]>, <57, 11, 22, 11, 3, 0, 0, [1, 1, 1, 0, 0, 1]>, <58, 12, 23, 11, 3, 0, 0, [1, 1, 1, 0, 0, 1]>, <59, 13, 24, 11, 3, 0, 0, [1, 1, 1, 0, 0, 1]>, <60, 14, 25, 11, 3, 0, 0, [1, 1, 1, 0, 0, 1]>, <61, 15, 26, 11, 3, 0, 0, [1, 1, 1, 0, 0, 1]>, <62, 16, 27, 11, 3, 0, 0, [1, 1, 1, 0, 0, 1]>, <63, 17, 28, 11, 3, 0, 0, [1, 1, 1, 0, 0, 1]>, <64, 18, 29, 11, 3, 0, 0, [1, 1, 1, 0, 0, 1]>, <65, 2, 12, 10, 4, 1, 0, [1, 0, 0, 1, 1, 1]>, <66, 3, 13, 10, 4, 1, 0, [1, 0, 0, 1, 1, 1]>, <67, 4, 14, 10, 4, 1, 0, [1, 0, 0, 1, 1, 1]>, <68, 5, 15, 10, 4, 1, 0, [1, 0, 0, 1, 1, 1]>, <69, 10, 20, 10, 4, 1, 0, [1, 0, 0, 1, 1, 1]>, <70, 11, 21, 10, 4, 1, 0, [1, 0, 0, 1, 1, 1]>, <71, 12, 22, 10, 4, 1, 0, [1, 0, 0, 1, 1, 1]>, <72, 14, 24, 10, 4, 1, 0, [1, 0, 0, 1, 1, 1]>, <73, 15, 25, 10, 4, 1, 0, [1, 0, 0, 1, 1, 1]>, <74, 16, 26, 10, 4, 1, 0, [1, 0, 0, 1, 1, 1]>, <75, 17, 27, 10, 4, 1, 0, [1, 0, 0, 1, 1, 1]>, <76, 18, 28, 10, 4, 1, 0, [1, 0, 0, 1, 1, 1]>, <77, 19, 29, 10, 4, 1, 0, [1, 0, 0, 1, 1, 1]>, <78, 0, 12, 12, 5, 0, 0, [0, 1, 1, 1, 1, 0]>, <79, 1, 13, 12, 5, 0, 0, [0, 1, 1, 1, 1, 0]>, <80, 2, 14, 12, 5, 0, 0, [0, 1, 1, 1, 1, 0]>, <81, 3, 15, 12, 5, 0, 0, [0, 1, 1, 1, 1, 0]>, <82, 4, 16, 12, 5, 0, 0, [0, 1, 1, 1, 1, 0]>, <83, 5, 17, 12, 5, 0, 0, [0, 1, 1, 1, 1, 0]>, <84, 8, 20, 12, 5, 0, 0, [0, 1, 1, 1, 1, 0]>, <85, 9, 21, 12, 5, 0, 0, [0, 1, 1, 1, 1, 0]>, <86, 10, 22, 12, 5, 0, 0, [0, 1, 1, 1, 1, 0]>, <87, 11, 23, 12, 5, 0, 0, [0, 1, 1, 1, 1, 0]>, <88, 12, 24, 12, 5, 0, 0, [0, 1, 1, 1, 1, 0]>, <89, 13, 25, 12, 5, 0, 0, [0, 1, 1, 1, 1, 0]>, <90, 14, 26, 12, 5, 0, 0, [0, 1, 1, 1, 1, 0]>, <91, 15, 27, 12, 5, 0, 0, [0, 1, 1, 1, 1, 0]>, <92, 16, 28, 12, 5, 0, 0, [0, 1, 1, 1, 1, 0]>, <93, 17, 29, 12, 5, 0, 0, [0, 1, 1, 1, 1, 0]>, <94, 2, 12, 10, 6, 1, 0, [0, 1, 1, 1, 1, 0]>, <95, 3, 13, 10, 6, 1, 0, [0, 1, 1, 1, 1, 0]>, <96, 4, 14, 10, 6, 1, 0, [0, 1, 1, 1, 1, 0]>, <97, 5, 15, 10, 6, 1, 0, [0, 1, 1, 1, 1, 0]>, <98, 10, 20, 10, 6, 1, 0, [0, 1, 1, 1, 1, 0]>, <99, 11, 21, 10, 6, 1, 0, [0, 1, 1, 1, 1, 0]>, <100, 12, 22, 10, 6, 1, 0, [0, 1, 1, 1, 1, 0]>, <101, 14, 24, 10, 6, 1, 0, [0, 1, 1, 1, 1, 0]>, <102, 15, 25, 10, 6, 1, 0, [0, 1, 1, 1, 1, 0]>, <103, 16, 26, 10, 6, 1, 0, [0, 1, 1, 1, 1, 0]>, <104, 17, 27, 10, 6, 1, 0, [0, 1, 1, 1, 1, 0]>, <105, 18, 28, 10, 6, 1, 0, [0, 1, 1, 1, 1, 0]>, <106, 19, 29, 10, 6, 1, 0, [0, 1, 1, 1, 1, 0]>, <107, 3, 12, 9, 7, 0, 1, [1, 1, 0, 0, 1, 1]>, <108, 4, 13, 9, 7, 0, 1, [1, 1, 0, 0, 1, 1]>, <109, 5, 14, 9, 7, 0, 1, [1, 1, 0, 0, 1, 1]>, <110, 11, 20, 9, 7, 0, 1, [1, 1, 0, 0, 1, 1]>, <111, 12, 21, 9, 7, 0, 1, [1, 1, 0, 0, 1, 1]>, <112, 15, 24, 9, 7, 0, 1, [1, 1, 0, 0, 1, 1]>, <113, 16, 25, 9, 7, 0, 1, [1, 1, 0, 0, 1, 1]>, <114, 17, 26, 9, 7, 0, 1, [1, 1, 0, 0, 1, 1]>, <115, 18, 27, 9, 7, 0, 1, [1, 1, 0, 0, 1, 1]>, <116, 19, 28, 9, 7, 0, 1, [1, 1, 0, 0, 1, 1]>, <117, 20, 29, 9, 7, 0, 1, [1, 1, 0, 0, 1, 1]>, <118, 2, 12, 10, 8, 0, 1, [0, 1, 1, 1, 1, 0]>, <119, 3, 13, 10, 8, 0, 1, [0, 1, 1, 1, 1, 0]>, <120, 4, 14, 10, 8, 0, 1, [0, 1, 1, 1, 1, 0]>, <121, 5, 15, 10, 8, 0, 1, [0, 1, 1, 1, 1, 0]>, <122, 10, 20, 10, 8, 0, 1, [0, 1, 1, 1, 1, 0]>, <123, 11, 21, 10, 8, 0, 1, [0, 1, 1, 1, 1, 0]>, <124, 12, 22, 10, 8, 0, 1, [0, 1, 1, 1, 1, 0]>, <125, 14, 24, 10, 8, 0, 1, [0, 1, 1, 1, 1, 0]>, <126, 15, 25, 10, 8, 0, 1, [0, 1, 1, 1, 1, 0]>, <127, 16, 26, 10, 8, 0, 1, [0, 1, 1, 1, 1, 0]>, <128, 17, 27, 10, 8, 0, 1, [0, 1, 1, 1, 1, 0]>, <129, 18, 28, 10, 8, 0, 1, [0, 1, 1, 1, 1, 0]>, <130, 19, 29, 10, 8, 0, 1, [0, 1, 1, 1, 1, 0]>, <131, 4, 11, 7, 9, 0, 1, [1, 1, 1, 0, 0, 1]>, <132, 5, 12, 7, 9, 0, 1, [1, 1, 1, 0, 0, 1]>, <133, 11, 18, 7, 9, 0, 1, [1, 1, 1, 0, 0, 1]>, <134, 12, 19, 7, 9, 0, 1, [1, 1, 1, 0, 0, 1]>, <135, 17, 24, 7, 9, 0, 1, [1, 1, 1, 0, 0, 1]>, <136, 18, 25, 7, 9, 0, 1, [1, 1, 1, 0, 0, 1]>, <137, 19, 26, 7, 9, 0, 1, [1, 1, 1, 0, 0, 1]>, <138, 20, 27, 7, 9, 0, 1, [1, 1, 1, 0, 0, 1]>, <139, 3, 12, 9, 10, 1, 0, [1, 1, 1, 1, 0, 0]>, <140, 4, 13, 9, 10, 1, 0, [1, 1, 1, 1, 0, 0]>, <141, 5, 14, 9, 10, 1, 0, [1, 1, 1, 1, 0, 0]>, <142, 11, 20, 9, 10, 1, 0, [1, 1, 1, 1, 0, 0]>, <143, 12, 21, 9, 10, 1, 0, [1, 1, 1, 1, 0, 0]>, <144, 15, 24, 9, 10, 1, 0, [1, 1, 1, 1, 0, 0]>, <145, 16, 25, 9, 10, 1, 0, [1, 1, 1, 1, 0, 0]>, <146, 17, 26, 9, 10, 1, 0, [1, 1, 1, 1, 0, 0]>, <147, 18, 27, 9, 10, 1, 0, [1, 1, 1, 1, 0, 0]>, <148, 19, 28, 9, 10, 1, 0, [1, 1, 1, 1, 0, 0]>, <149, 20, 29, 9, 10, 1, 0, [1, 1, 1, 1, 0, 0]>, <150, 2, 12, 10, 11, 1, 0, [1, 1, 1, 1, 0, 0]>, <151, 3, 13, 10, 11, 1, 0, [1, 1, 1, 1, 0, 0]>, <152, 4, 14, 10, 11, 1, 0, [1, 1, 1, 1, 0, 0]>, <153, 5, 15, 10, 11, 1, 0, [1, 1, 1, 1, 0, 0]>, <154, 10, 20, 10, 11, 1, 0, [1, 1, 1, 1, 0, 0]>, <155, 11, 21, 10, 11, 1, 0, [1, 1, 1, 1, 0, 0]>, <156, 12, 22, 10, 11, 1, 0, [1, 1, 1, 1, 0, 0]>, <157, 14, 24, 10, 11, 1, 0, [1, 1, 1, 1, 0, 0]>, <158, 15, 25, 10, 11, 1, 0, [1, 1, 1, 1, 0, 0]>, <159, 16, 26, 10, 11, 1, 0, [1, 1, 1, 1, 0, 0]>, <160, 17, 27, 10, 11, 1, 0, [1, 1, 1, 1, 0, 0]>, <161, 18, 28, 10, 11, 1, 0, [1, 1, 1, 1, 0, 0]>, <162, 19, 29, 10, 11, 1, 0, [1, 1, 1, 1, 0, 0]>, <163, 3, 12, 9, 12, 0, 1, [1, 1, 1, 0, 0, 1]>, <164, 4, 13, 9, 12, 0, 1, [1, 1, 1, 0, 0, 1]>, <165, 5, 14, 9, 12, 0, 1, [1, 1, 1, 0, 0, 1]>, <166, 11, 20, 9, 12, 0, 1, [1, 1, 1, 0, 0, 1]>, <167, 12, 21, 9, 12, 0, 1, [1, 1, 1, 0, 0, 1]>, <168, 15, 24, 9, 12, 0, 1, [1, 1, 1, 0, 0, 1]>, <169, 16, 25, 9, 12, 0, 1, [1, 1, 1, 0, 0, 1]>, <170, 17, 26, 9, 12, 0, 1, [1, 1, 1, 0, 0, 1]>, <171, 18, 27, 9, 12, 0, 1, [1, 1, 1, 0, 0, 1]>, <172, 19, 28, 9, 12, 0, 1, [1, 1, 1, 0, 0, 1]>, <173, 20, 29, 9, 12, 0, 1, [1, 1, 1, 0, 0, 1]>, <174, 2, 12, 10, 13, 0, 0, [0, 0, 1, 1, 1, 1]>, <175, 3, 13, 10, 13, 0, 0, [0, 0, 1, 1, 1, 1]>, <176, 4, 14, 10, 13, 0, 0, [0, 0, 1, 1, 1, 1]>, <177, 5, 15, 10, 13, 0, 0, [0, 0, 1, 1, 1, 1]>, <178, 10, 20, 10, 13, 0, 0, [0, 0, 1, 1, 1, 1]>, <179, 11, 21, 10, 13, 0, 0, [0, 0, 1, 1, 1, 1]>, <180, 12, 22, 10, 13, 0, 0, [0, 0, 1, 1, 1, 1]>, <181, 14, 24, 10, 13, 0, 0, [0, 0, 1, 1, 1, 1]>, <182, 15, 25, 10, 13, 0, 0, [0, 0, 1, 1, 1, 1]>, <183, 16, 26, 10, 13, 0, 0, [0, 0, 1, 1, 1, 1]>, <184, 17, 27, 10, 13, 0, 0, [0, 0, 1, 1, 1, 1]>, <185, 18, 28, 10, 13, 0, 0, [0, 0, 1, 1, 1, 1]>, <186, 19, 29, 10, 13, 0, 0, [0, 0, 1, 1, 1, 1]>, <187, 3, 12, 9, 14, 0, 0, [1, 0, 0, 1, 1, 1]>, <188, 4, 13, 9, 14, 0, 0, [1, 0, 0, 1, 1, 1]>, <189, 5, 14, 9, 14, 0, 0, [1, 0, 0, 1, 1, 1]>, <190, 11, 20, 9, 14, 0, 0, [1, 0, 0, 1, 1, 1]>, <191, 12, 21, 9, 14, 0, 0, [1, 0, 0, 1, 1, 1]>, <192, 15, 24, 9, 14, 0, 0, [1, 0, 0, 1, 1, 1]>, <193, 16, 25, 9, 14, 0, 0, [1, 0, 0, 1, 1, 1]>, <194, 17, 26, 9, 14, 0, 0, [1, 0, 0, 1, 1, 1]>, <195, 18, 27, 9, 14, 0, 0, [1, 0, 0, 1, 1, 1]>, <196, 19, 28, 9, 14, 0, 0, [1, 0, 0, 1, 1, 1]>, <197, 20, 29, 9, 14, 0, 0, [1, 0, 0, 1, 1, 1]>};
